************************************************************************
file with basedata            : J12024_.BAS
initial value random generator: 861136026
************************************************************************
projects                      :  1
jobs (incl. supersource/sink ):  122
horizon                       :  667
RESOURCES
  - renewable                 :  4   R
  - nonrenewable              :  0   N
  - doubly constrained        :  0   D
************************************************************************
PROJECT INFORMATION:
pronr.  #jobs rel.date duedate tardcost  MPM-Time
    1    120      0       91       45       91
************************************************************************
PRECEDENCE RELATIONS:
jobnr.    #modes  #successors   successors
   1        1          3           2   3   4
   2        1          3           6   9  16
   3        1          3           5   8  92
   4        1          3          20  26  93
   5        1          1          63
   6        1          3           7  11  69
   7        1          3          10  14  40
   8        1          2          17  44
   9        1          3          12  62  81
  10        1          3          13  17  27
  11        1          3          15  23  91
  12        1          3          22  33  74
  13        1          2          18  37
  14        1          2          68  91
  15        1          3          55  61 119
  16        1          1          19
  17        1          2          25 118
  18        1          2          28  48
  19        1          3          21  39  46
  20        1          3          45  53  67
  21        1          3          31  38  49
  22        1          3          24  79  91
  23        1          3          54  88 105
  24        1          2          42 101
  25        1          1          34
  26        1          3          32  56  83
  27        1          3          29  39  64
  28        1          1         109
  29        1          3          30  35  76
  30        1          2          82 121
  31        1          3          94 101 104
  32        1          3          36  43  76
  33        1          3          39  54  78
  34        1          2          47  77
  35        1          3          51  55  97
  36        1          1          47
  37        1          2          81  86
  38        1          3          41  63  77
  39        1          3          89 105 116
  40        1          1          94
  41        1          2          72 109
  42        1          2          82  93
  43        1          1         111
  44        1          2          52  72
  45        1          1          58
  46        1          3          52  61  67
  47        1          3          51  57  65
  48        1          2          66  67
  49        1          3          50  59  60
  50        1          3          78  85 106
  51        1          3          79  85  96
  52        1          3          56  76  86
  53        1          1         107
  54        1          1         116
  55        1          1          70
  56        1          1          84
  57        1          2          61  66
  58        1          1          75
  59        1          3          66  82  87
  60        1          2          81  85
  61        1          1         102
  62        1          1          99
  63        1          2          94 114
  64        1          3          73  78  89
  65        1          1         103
  66        1          2          84  86
  67        1          3          71  77  95
  68        1          1          96
  69        1          3          93 100 117
  70        1          2          80 101
  71        1          1          72
  72        1          1         114
  73        1          3          84 100 106
  74        1          1          92
  75        1          1          87
  76        1          1          88
  77        1          1         107
  78        1          2          90 103
  79        1          1          88
  80        1          3          87  96  98
  81        1          1         106
  82        1          1         102
  83        1          2          90 110
  84        1          2         102 103
  85        1          1         119
  86        1          1         111
  87        1          1         110
  88        1          3          95  98 113
  89        1          1          98
  90        1          1          92
  91        1          1          99
  92        1          1         111
  93        1          1         105
  94        1          1         107
  95        1          1         100
  96        1          1          99
  97        1          1         116
  98        1          1         114
  99        1          1         104
 100        1          1         104
 101        1          1         108
 102        1          1         112
 103        1          1         115
 104        1          1         112
 105        1          1         112
 106        1          1         110
 107        1          1         115
 108        1          1         109
 109        1          1         118
 110        1          2         113 117
 111        1          1         119
 112        1          1         120
 113        1          1         115
 114        1          2         117 120
 115        1          1         121
 116        1          1         118
 117        1          1         121
 118        1          1         120
 119        1          1         122
 120        1          1         122
 121        1          1         122
 122        1          0        
************************************************************************
REQUESTS/DURATIONS:
jobnr. mode duration  R 1  R 2  R 3  R 4
------------------------------------------------------------------------
  1      1     0       0    0    0    0
  2      1     5       0   10    0    0
  3      1    10       0    0   10    0
  4      1     5       0    0    8    0
  5      1     9       0    7    0    0
  6      1     5      10    0    0    0
  7      1     5       0    0    2    0
  8      1     8       0    3    0    0
  9      1     3       7    0    0    0
 10      1     6       2    0    0    0
 11      1     6       1    0    0    0
 12      1     6       0    0    0    9
 13      1    10       0    0    4    0
 14      1    10       0    0    0    9
 15      1     8       0    7    0    0
 16      1     1       0    0    8    0
 17      1     9       0    4    0    0
 18      1     1       0    0    7    0
 19      1     9       0    3    0    0
 20      1    10       0    0    8    0
 21      1     4       6    0    0    0
 22      1     9       0    0    0    7
 23      1     6       0    9    0    0
 24      1     7       0    0    9    0
 25      1    10       0    3    0    0
 26      1     9       8    0    0    0
 27      1     4       0    0    1    0
 28      1     4       0    6    0    0
 29      1     7       0    0    2    0
 30      1     2       0    0    4    0
 31      1     5       1    0    0    0
 32      1     6       4    0    0    0
 33      1     6       0    8    0    0
 34      1     8       4    0    0    0
 35      1     5       0    0    1    0
 36      1    10       0    4    0    0
 37      1     8       0    3    0    0
 38      1     6       0    0    0    9
 39      1     4       0    0    4    0
 40      1     2       0    0    1    0
 41      1     1       0    4    0    0
 42      1     6       0    4    0    0
 43      1     9       0   10    0    0
 44      1     4       0    3    0    0
 45      1     2       1    0    0    0
 46      1     8       0    0    0    7
 47      1     9       0    0    0    5
 48      1     5       0    0    0    6
 49      1     3       2    0    0    0
 50      1     3       0    0    2    0
 51      1     1       7    0    0    0
 52      1     7       0    0    1    0
 53      1     8       0    6    0    0
 54      1     7       0    1    0    0
 55      1    10       0    0    0    5
 56      1     7       0    0    8    0
 57      1     1       0    4    0    0
 58      1    10       0    0    7    0
 59      1     4       7    0    0    0
 60      1     4       0    7    0    0
 61      1     4       0    4    0    0
 62      1     1       0    5    0    0
 63      1     6       0    1    0    0
 64      1     6       0    0    0    3
 65      1     9       0    0    8    0
 66      1    10       0    9    0    0
 67      1     2       0    0    0    3
 68      1     1       0    0    6    0
 69      1     1       0    0    3    0
 70      1     5       0    8    0    0
 71      1     2       0    0    0    9
 72      1    10       0    0    8    0
 73      1     7       0   10    0    0
 74      1     2       0    7    0    0
 75      1     9       0    1    0    0
 76      1     7       0    0    0    7
 77      1    10       0   10    0    0
 78      1     3       0    0    7    0
 79      1     6       0    0    6    0
 80      1     6       0    0    4    0
 81      1     7       0   10    0    0
 82      1     3       0    0    7    0
 83      1     9       0    0    0    6
 84      1     8       7    0    0    0
 85      1     5       0    7    0    0
 86      1     5       9    0    0    0
 87      1     6       0    0    9    0
 88      1     3       0    0    6    0
 89      1     4       0    0    9    0
 90      1     7       0    1    0    0
 91      1     2       0    0   10    0
 92      1     3       0    0    7    0
 93      1     1       0    0    0    8
 94      1     7       6    0    0    0
 95      1     5       0    5    0    0
 96      1     6       0    6    0    0
 97      1     6       0    0    0    8
 98      1     4       0    0   10    0
 99      1    10       0    4    0    0
100      1     5       0    0    0    2
101      1     5       0    4    0    0
102      1     1       0    0    0    8
103      1     7       0    0    5    0
104      1     8       0    2    0    0
105      1     5       0    0    6    0
106      1     2       0    8    0    0
107      1     6      10    0    0    0
108      1     8       0    0    7    0
109      1    10       7    0    0    0
110      1     7       8    0    0    0
111      1     2       0    0    0    6
112      1     5       0    0    0   10
113      1     2       0    0    2    0
114      1     9       0    0    0    4
115      1     3       0    2    0    0
116      1     3       6    0    0    0
117      1     2       9    0    0    0
118      1     1       0   10    0    0
119      1     6       6    0    0    0
120      1     1       8    0    0    0
121      1     4       0    8    0    0
122      1     0       0    0    0    0
************************************************************************
RESOURCEAVAILABILITIES:
  R 1  R 2  R 3  R 4
   18   23   23   21
************************************************************************
